47
34 68 
50 24 
76 90 
26 84 
46 32 
26 33 
38 92 
61 75 
59 67 
28 37 
53 81 
62 79 
38 37 
90 80 
64 32 
100 90 
79 29 
84 21 
35 73 
84 31 
30 64 
59 66 
45 36 
40 80 
23 21 
57 22 
80 60 
75 88 
47 68 
42 29 
92 100 
37 79 
41 81 97 
64 67 25 
24 98 45 
67 66 46 
29 50 94 
38 48 41 
44 27 23 42 
74 64 62 51 
37 36 35 97 
76 85 83 31 
64 20 91 32 
65 80 69 48 67 
28 66 34 91 96 
51 69 53 46 70 29 
48 61 
